p edge 40 408
e 3 1
e 3 2
e 4 1
e 5 3
e 5 4
e 6 1
e 6 2
e 6 3
e 6 4
e 6 5
e 7 1
e 7 3
e 7 4
e 7 5
e 7 6
e 8 2
e 8 3
e 8 5
e 8 7
e 9 2
e 9 5
e 10 1
e 10 2
e 10 3
e 10 4
e 10 5
e 10 6
e 10 8
e 10 9
e 11 1
e 11 2
e 11 5
e 11 7
e 11 8
e 11 9
e 11 10
e 12 2
e 12 4
e 12 5
e 12 7
e 12 9
e 13 5
e 13 8
e 13 9
e 13 10
e 13 11
e 14 2
e 14 3
e 14 4
e 14 5
e 14 6
e 14 8
e 14 9
e 14 11
e 15 5
e 15 6
e 15 8
e 15 13
e 15 14
e 16 2
e 16 4
e 16 7
e 16 12
e 16 14
e 16 15
e 17 2
e 17 3
e 17 6
e 17 7
e 17 8
e 17 10
e 17 13
e 17 15
e 17 16
e 18 1
e 18 2
e 18 5
e 18 7
e 18 9
e 18 10
e 18 15
e 18 16
e 18 17
e 19 1
e 19 3
e 19 4
e 19 5
e 19 9
e 19 10
e 19 11
e 19 12
e 19 16
e 19 18
e 20 1
e 20 4
e 20 7
e 20 8
e 20 11
e 20 14
e 20 16
e 20 18
e 21 2
e 21 3
e 21 5
e 21 6
e 21 10
e 21 12
e 21 15
e 21 16
e 21 17
e 22 1
e 22 2
e 22 12
e 22 13
e 22 14
e 22 15
e 22 19
e 23 3
e 23 5
e 23 6
e 23 8
e 23 11
e 23 14
e 23 15
e 23 16
e 23 17
e 23 18
e 23 19
e 24 1
e 24 2
e 24 4
e 24 7
e 24 9
e 24 11
e 24 13
e 24 14
e 24 15
e 24 18
e 24 19
e 24 20
e 24 21
e 25 1
e 25 2
e 25 3
e 25 4
e 25 5
e 25 10
e 25 11
e 25 12
e 25 13
e 25 15
e 25 17
e 25 18
e 25 20
e 25 21
e 25 24
e 26 1
e 26 6
e 26 7
e 26 10
e 26 11
e 26 12
e 26 13
e 26 16
e 26 19
e 26 20
e 26 21
e 26 24
e 27 1
e 27 2
e 27 4
e 27 6
e 27 8
e 27 12
e 27 13
e 27 15
e 27 16
e 27 19
e 27 20
e 27 22
e 27 25
e 27 26
e 28 3
e 28 4
e 28 6
e 28 8
e 28 13
e 28 15
e 28 16
e 28 18
e 28 24
e 28 27
e 29 2
e 29 3
e 29 10
e 29 11
e 29 13
e 29 14
e 29 15
e 29 16
e 29 18
e 29 20
e 29 21
e 29 23
e 29 24
e 29 26
e 29 28
e 30 1
e 30 3
e 30 4
e 30 5
e 30 7
e 30 8
e 30 9
e 30 10
e 30 14
e 30 18
e 30 19
e 30 20
e 30 23
e 31 1
e 31 3
e 31 6
e 31 7
e 31 9
e 31 12
e 31 13
e 31 15
e 31 16
e 31 18
e 31 19
e 31 21
e 31 22
e 31 26
e 31 27
e 31 28
e 32 1
e 32 3
e 32 4
e 32 5
e 32 6
e 32 7
e 32 8
e 32 11
e 32 15
e 32 16
e 32 17
e 32 18
e 32 19
e 32 21
e 32 24
e 32 26
e 32 29
e 33 3
e 33 4
e 33 5
e 33 6
e 33 7
e 33 8
e 33 9
e 33 10
e 33 11
e 33 12
e 33 13
e 33 14
e 33 15
e 33 16
e 33 17
e 33 24
e 33 25
e 33 26
e 33 28
e 33 29
e 33 32
e 34 1
e 34 5
e 34 9
e 34 10
e 34 11
e 34 12
e 34 13
e 34 14
e 34 15
e 34 16
e 34 17
e 34 18
e 34 23
e 34 24
e 34 26
e 34 27
e 34 28
e 34 29
e 34 31
e 34 32
e 34 33
e 35 1
e 35 2
e 35 4
e 35 6
e 35 7
e 35 11
e 35 12
e 35 13
e 35 14
e 35 15
e 35 17
e 35 20
e 35 21
e 35 23
e 35 24
e 35 25
e 35 26
e 35 27
e 35 28
e 35 29
e 35 33
e 36 3
e 36 4
e 36 5
e 36 13
e 36 15
e 36 16
e 36 19
e 36 20
e 36 22
e 36 24
e 36 25
e 36 29
e 36 30
e 36 33
e 37 1
e 37 4
e 37 5
e 37 6
e 37 7
e 37 9
e 37 10
e 37 11
e 37 13
e 37 14
e 37 15
e 37 18
e 37 19
e 37 20
e 37 21
e 37 22
e 37 23
e 37 28
e 37 29
e 37 30
e 37 32
e 37 34
e 37 35
e 37 36
e 38 2
e 38 4
e 38 6
e 38 7
e 38 9
e 38 15
e 38 16
e 38 17
e 38 20
e 38 21
e 38 24
e 38 25
e 38 26
e 38 27
e 38 28
e 38 29
e 38 30
e 38 31
e 38 32
e 38 33
e 38 35
e 39 4
e 39 6
e 39 7
e 39 9
e 39 16
e 39 18
e 39 19
e 39 20
e 39 21
e 39 22
e 39 23
e 39 26
e 39 28
e 39 31
e 39 33
e 39 34
e 39 36
e 39 37
e 39 38
e 40 1
e 40 5
e 40 7
e 40 11
e 40 13
e 40 14
e 40 15
e 40 16
e 40 18
e 40 19
e 40 21
e 40 24
e 40 32
e 40 35
